100 70412

 862 817
390 52
593 882
999 363
985 797
325 917
69 474
660 846
448 521
528 763
819 431
617 844
165 298
488 435
713 696
709 691
426 198
697 128
834 532
265 984
875 411
612 934
342 840
832 65
726 694
278 241
674 369
439 536
157 384
422 431
251 967
878 83
609 982
530 831
327 697
961 951
895 828
97 611
513 574
216 286
132 989
260 534
125 459
82 212
283 126
683 413
59 499
544 425
161 554
284 610
106 961
105 543
439 158
228 112
700 402
582 759
318 122
464 273
802 294
599 398
882 471
874 985
472 207
56 110
625 440
13 278
440 963
18 568
694 887
973 915
113 569
229 940
171 482
295 803
189 114
426 893
977 897
79 820
658 853
919 477
182 710
499 933
798 321
762 179
866 897
826 219
708 789
835 949
71 528
248 492
146 891
618 61
775 54
296 680
582 538
470 848
506 988
193 65
68 612
494 586
